65  		= number of variables
2   		= number of blocks
10  -222	= blocksizes (negative sign for LP-block, size of LP-block equals the number of LP-constraints)
* the next line gives the objective values in the order of the variables
-1.7884 -1.2998 -1.0343 0.51566 0.90438 0.78676 -0.47486 -0.49996 -0.68859 1.0272 -0.93235 -1.1351 0.57867 0.71461 0.11686 -0.24189 -0.1445 -0.21411 0.66952 -1.3465 1.255 0.24907 0.14668 -1.9489 0.87297 -0.84452 1.5896 -1.0147 -0.59927 -0.29676 1.1112 0.1792 0.27277 -1.1877 -0.62456 -0.41103 0.35993 0.0063255 -0.28222 0.020398 -0.34884 -0.084457 -0.25625 -0.20053 -0.14574 -1.2315 0.84888 -0.51214 0.89124 -1.0441 -0.68353 -0.16543 -0.83832 0.83247 -0.88375 0    0    0    0    0    0    0    0    0    0    
* the remaining lines give the nonzeroes of the constraints with variable (0 meaning the constant part) block row column value
       1        1        1        1        1
       2        1        1        2        1
       3        1        1        3        1
       4        1        1        4        1
       5        1        1        5        1
       6        1        1        6        1
       7        1        1        7        1
       8        1        1        8        1
       9        1        1        9        1
      10        1        1       10        1
      11        1        2        2        1
      12        1        2        3        1
      13        1        2        4        1
      14        1        2        5        1
      15        1        2        6        1
      16        1        2        7        1
      17        1        2        8        1
      18        1        2        9        1
      19        1        2       10        1
      20        1        3        3        1
      21        1        3        4        1
      22        1        3        5        1
      23        1        3        6        1
      24        1        3        7        1
      25        1        3        8        1
      26        1        3        9        1
      27        1        3       10        1
      28        1        4        4        1
      29        1        4        5        1
      30        1        4        6        1
      31        1        4        7        1
      32        1        4        8        1
      33        1        4        9        1
      34        1        4       10        1
      35        1        5        5        1
      36        1        5        6        1
      37        1        5        7        1
      38        1        5        8        1
      39        1        5        9        1
      40        1        5       10        1
      41        1        6        6        1
      42        1        6        7        1
      43        1        6        8        1
      44        1        6        9        1
      45        1        6       10        1
      46        1        7        7        1
      47        1        7        8        1
      48        1        7        9        1
      49        1        7       10        1
      50        1        8        8        1
      51        1        8        9        1
      52        1        8       10        1
      53        1        9        9        1
      54        1        9       10        1
      55        1       10       10        1
       0        2        1        1       -1
       1        2        1        1       -1
      11        2        1        1       -1
      20        2        1        1       -1
      28        2        1        1       -1
      35        2        1        1       -1
      41        2        1        1       -1
      46        2        1        1       -1
      50        2        1        1       -1
      53        2        1        1       -1
      55        2        1        1       -1
       0        2        2        2       -2
      56        2        2        2       -1
      57        2        2        2       -1
      58        2        2        2       -1
      59        2        2        2       -1
      60        2        2        2       -1
      61        2        2        2       -1
      62        2        2        2       -1
      63        2        2        2       -1
      64        2        2        2       -1
      65        2        2        2       -1
       1        2        3        3        1
      56        2        3        3        1
       1        2        4        4       -1
      56        2        4        4        1
       2        2        5        5        1
      57        2        5        5        1
       2        2        6        6       -1
      57        2        6        6        1
       2        2        7        7        1
      56        2        7        7        1
       2        2        8        8       -1
      56        2        8        8        1
       3        2        9        9        1
      58        2        9        9        1
       3        2       10       10       -1
      58        2       10       10        1
       3        2       11       11        1
      56        2       11       11        1
       3        2       12       12       -1
      56        2       12       12        1
       4        2       13       13        1
      59        2       13       13        1
       4        2       14       14       -1
      59        2       14       14        1
       4        2       15       15        1
      56        2       15       15        1
       4        2       16       16       -1
      56        2       16       16        1
       5        2       17       17        1
      60        2       17       17        1
       5        2       18       18       -1
      60        2       18       18        1
       5        2       19       19        1
      56        2       19       19        1
       5        2       20       20       -1
      56        2       20       20        1
       6        2       21       21        1
      61        2       21       21        1
       6        2       22       22       -1
      61        2       22       22        1
       6        2       23       23        1
      56        2       23       23        1
       6        2       24       24       -1
      56        2       24       24        1
       7        2       25       25        1
      62        2       25       25        1
       7        2       26       26       -1
      62        2       26       26        1
       7        2       27       27        1
      56        2       27       27        1
       7        2       28       28       -1
      56        2       28       28        1
       8        2       29       29        1
      63        2       29       29        1
       8        2       30       30       -1
      63        2       30       30        1
       8        2       31       31        1
      56        2       31       31        1
       8        2       32       32       -1
      56        2       32       32        1
       9        2       33       33        1
      64        2       33       33        1
       9        2       34       34       -1
      64        2       34       34        1
       9        2       35       35        1
      56        2       35       35        1
       9        2       36       36       -1
      56        2       36       36        1
      10        2       37       37        1
      65        2       37       37        1
      10        2       38       38       -1
      65        2       38       38        1
      10        2       39       39        1
      56        2       39       39        1
      10        2       40       40       -1
      56        2       40       40        1
      11        2       41       41        1
      57        2       41       41        1
      11        2       42       42       -1
      57        2       42       42        1
      12        2       43       43        1
      58        2       43       43        1
      12        2       44       44       -1
      58        2       44       44        1
      12        2       45       45        1
      57        2       45       45        1
      12        2       46       46       -1
      57        2       46       46        1
      13        2       47       47        1
      59        2       47       47        1
      13        2       48       48       -1
      59        2       48       48        1
      13        2       49       49        1
      57        2       49       49        1
      13        2       50       50       -1
      57        2       50       50        1
      14        2       51       51        1
      60        2       51       51        1
      14        2       52       52       -1
      60        2       52       52        1
      14        2       53       53        1
      57        2       53       53        1
      14        2       54       54       -1
      57        2       54       54        1
      15        2       55       55        1
      61        2       55       55        1
      15        2       56       56       -1
      61        2       56       56        1
      15        2       57       57        1
      57        2       57       57        1
      15        2       58       58       -1
      57        2       58       58        1
      16        2       59       59        1
      62        2       59       59        1
      16        2       60       60       -1
      62        2       60       60        1
      16        2       61       61        1
      57        2       61       61        1
      16        2       62       62       -1
      57        2       62       62        1
      17        2       63       63        1
      63        2       63       63        1
      17        2       64       64       -1
      63        2       64       64        1
      17        2       65       65        1
      57        2       65       65        1
      17        2       66       66       -1
      57        2       66       66        1
      18        2       67       67        1
      64        2       67       67        1
      18        2       68       68       -1
      64        2       68       68        1
      18        2       69       69        1
      57        2       69       69        1
      18        2       70       70       -1
      57        2       70       70        1
      19        2       71       71        1
      65        2       71       71        1
      19        2       72       72       -1
      65        2       72       72        1
      19        2       73       73        1
      57        2       73       73        1
      19        2       74       74       -1
      57        2       74       74        1
      20        2       75       75        1
      58        2       75       75        1
      20        2       76       76       -1
      58        2       76       76        1
      21        2       77       77        1
      59        2       77       77        1
      21        2       78       78       -1
      59        2       78       78        1
      21        2       79       79        1
      58        2       79       79        1
      21        2       80       80       -1
      58        2       80       80        1
      22        2       81       81        1
      60        2       81       81        1
      22        2       82       82       -1
      60        2       82       82        1
      22        2       83       83        1
      58        2       83       83        1
      22        2       84       84       -1
      58        2       84       84        1
      23        2       85       85        1
      61        2       85       85        1
      23        2       86       86       -1
      61        2       86       86        1
      23        2       87       87        1
      58        2       87       87        1
      23        2       88       88       -1
      58        2       88       88        1
      24        2       89       89        1
      62        2       89       89        1
      24        2       90       90       -1
      62        2       90       90        1
      24        2       91       91        1
      58        2       91       91        1
      24        2       92       92       -1
      58        2       92       92        1
      25        2       93       93        1
      63        2       93       93        1
      25        2       94       94       -1
      63        2       94       94        1
      25        2       95       95        1
      58        2       95       95        1
      25        2       96       96       -1
      58        2       96       96        1
      26        2       97       97        1
      64        2       97       97        1
      26        2       98       98       -1
      64        2       98       98        1
      26        2       99       99        1
      58        2       99       99        1
      26        2      100      100       -1
      58        2      100      100        1
      27        2      101      101        1
      65        2      101      101        1
      27        2      102      102       -1
      65        2      102      102        1
      27        2      103      103        1
      58        2      103      103        1
      27        2      104      104       -1
      58        2      104      104        1
      28        2      105      105        1
      59        2      105      105        1
      28        2      106      106       -1
      59        2      106      106        1
      29        2      107      107        1
      60        2      107      107        1
      29        2      108      108       -1
      60        2      108      108        1
      29        2      109      109        1
      59        2      109      109        1
      29        2      110      110       -1
      59        2      110      110        1
      30        2      111      111        1
      61        2      111      111        1
      30        2      112      112       -1
      61        2      112      112        1
      30        2      113      113        1
      59        2      113      113        1
      30        2      114      114       -1
      59        2      114      114        1
      31        2      115      115        1
      62        2      115      115        1
      31        2      116      116       -1
      62        2      116      116        1
      31        2      117      117        1
      59        2      117      117        1
      31        2      118      118       -1
      59        2      118      118        1
      32        2      119      119        1
      63        2      119      119        1
      32        2      120      120       -1
      63        2      120      120        1
      32        2      121      121        1
      59        2      121      121        1
      32        2      122      122       -1
      59        2      122      122        1
      33        2      123      123        1
      64        2      123      123        1
      33        2      124      124       -1
      64        2      124      124        1
      33        2      125      125        1
      59        2      125      125        1
      33        2      126      126       -1
      59        2      126      126        1
      34        2      127      127        1
      65        2      127      127        1
      34        2      128      128       -1
      65        2      128      128        1
      34        2      129      129        1
      59        2      129      129        1
      34        2      130      130       -1
      59        2      130      130        1
      35        2      131      131        1
      60        2      131      131        1
      35        2      132      132       -1
      60        2      132      132        1
      36        2      133      133        1
      61        2      133      133        1
      36        2      134      134       -1
      61        2      134      134        1
      36        2      135      135        1
      60        2      135      135        1
      36        2      136      136       -1
      60        2      136      136        1
      37        2      137      137        1
      62        2      137      137        1
      37        2      138      138       -1
      62        2      138      138        1
      37        2      139      139        1
      60        2      139      139        1
      37        2      140      140       -1
      60        2      140      140        1
      38        2      141      141        1
      63        2      141      141        1
      38        2      142      142       -1
      63        2      142      142        1
      38        2      143      143        1
      60        2      143      143        1
      38        2      144      144       -1
      60        2      144      144        1
      39        2      145      145        1
      64        2      145      145        1
      39        2      146      146       -1
      64        2      146      146        1
      39        2      147      147        1
      60        2      147      147        1
      39        2      148      148       -1
      60        2      148      148        1
      40        2      149      149        1
      65        2      149      149        1
      40        2      150      150       -1
      65        2      150      150        1
      40        2      151      151        1
      60        2      151      151        1
      40        2      152      152       -1
      60        2      152      152        1
      41        2      153      153        1
      61        2      153      153        1
      41        2      154      154       -1
      61        2      154      154        1
      42        2      155      155        1
      62        2      155      155        1
      42        2      156      156       -1
      62        2      156      156        1
      42        2      157      157        1
      61        2      157      157        1
      42        2      158      158       -1
      61        2      158      158        1
      43        2      159      159        1
      63        2      159      159        1
      43        2      160      160       -1
      63        2      160      160        1
      43        2      161      161        1
      61        2      161      161        1
      43        2      162      162       -1
      61        2      162      162        1
      44        2      163      163        1
      64        2      163      163        1
      44        2      164      164       -1
      64        2      164      164        1
      44        2      165      165        1
      61        2      165      165        1
      44        2      166      166       -1
      61        2      166      166        1
      45        2      167      167        1
      65        2      167      167        1
      45        2      168      168       -1
      65        2      168      168        1
      45        2      169      169        1
      61        2      169      169        1
      45        2      170      170       -1
      61        2      170      170        1
      46        2      171      171        1
      62        2      171      171        1
      46        2      172      172       -1
      62        2      172      172        1
      47        2      173      173        1
      63        2      173      173        1
      47        2      174      174       -1
      63        2      174      174        1
      47        2      175      175        1
      62        2      175      175        1
      47        2      176      176       -1
      62        2      176      176        1
      48        2      177      177        1
      64        2      177      177        1
      48        2      178      178       -1
      64        2      178      178        1
      48        2      179      179        1
      62        2      179      179        1
      48        2      180      180       -1
      62        2      180      180        1
      49        2      181      181        1
      65        2      181      181        1
      49        2      182      182       -1
      65        2      182      182        1
      49        2      183      183        1
      62        2      183      183        1
      49        2      184      184       -1
      62        2      184      184        1
      50        2      185      185        1
      63        2      185      185        1
      50        2      186      186       -1
      63        2      186      186        1
      51        2      187      187        1
      64        2      187      187        1
      51        2      188      188       -1
      64        2      188      188        1
      51        2      189      189        1
      63        2      189      189        1
      51        2      190      190       -1
      63        2      190      190        1
      52        2      191      191        1
      65        2      191      191        1
      52        2      192      192       -1
      65        2      192      192        1
      52        2      193      193        1
      63        2      193      193        1
      52        2      194      194       -1
      63        2      194      194        1
      53        2      195      195        1
      64        2      195      195        1
      53        2      196      196       -1
      64        2      196      196        1
      54        2      197      197        1
      65        2      197      197        1
      54        2      198      198       -1
      65        2      198      198        1
      54        2      199      199        1
      64        2      199      199        1
      54        2      200      200       -1
      64        2      200      200        1
      55        2      201      201        1
      65        2      201      201        1
      55        2      202      202       -1
      65        2      202      202        1
      56        2      203      203        1
       0        2      204      204       -1
      56        2      204      204       -1
      57        2      205      205        1
       0        2      206      206       -1
      57        2      206      206       -1
      58        2      207      207        1
       0        2      208      208       -1
      58        2      208      208       -1
      59        2      209      209        1
       0        2      210      210       -1
      59        2      210      210       -1
      60        2      211      211        1
       0        2      212      212       -1
      60        2      212      212       -1
      61        2      213      213        1
       0        2      214      214       -1
      61        2      214      214       -1
      62        2      215      215        1
       0        2      216      216       -1
      62        2      216      216       -1
      63        2      217      217        1
       0        2      218      218       -1
      63        2      218      218       -1
      64        2      219      219        1
       0        2      220      220       -1
      64        2      220      220       -1
      65        2      221      221        1
       0        2      222      222       -1
      65        2      222      222       -1
*INTEGER
*56  
*57  
*58  
*59  
*60  
*61  
*62  
*63  
*64  
*65  
